NAME : in_house_7_24
TYPE : TSP
DIMENSION : 7
EDGE_WEIGHT_TYPE : EXPLICIT
EDGE_WEIGHT_FORMAT : UPPER_ROW
COMMENT : INVERSION_SHIFT=1
EDGE_WEIGHT_SECTION
35
31
33
48
8
39
42
31
38
6
39
10
9
32
3
31
43
11
23
46
38
